(set-logic QF_LIA)
(declare-fun x0 () Int)
(declare-fun x1 () Int)
(declare-fun x2 () Int)
(declare-fun x3 () Int)
(declare-fun x4 () Int)
(declare-fun x5 () Int)
(declare-fun x6 () Int)
(declare-fun x7 () Int)
(declare-fun x8 () Int)
(declare-fun x9 () Int)
(declare-fun A0 () Bool)
(declare-fun A1 () Bool)
(declare-fun A2 () Bool)
(declare-fun A3 () Bool)
(declare-fun A5 () Bool)
(declare-fun A7 () Bool)
(declare-fun A8 () Bool)
(declare-fun A9 () Bool)
(assert (let ((.def_0 (not A0))) (let ((.def_1 (and .def_0 A2))) (let ((.def_2 (not .def_1))) (let ((.def_3 (not A2))) (let ((.def_4 (or .def_3 A1))) (let ((.def_5 (or .def_4 .def_2))) (let ((.def_6 (not A3))) (let ((.def_7 (* (- 1) x7))) (let ((.def_8 (* 1 x2))) (let ((.def_9 (+ .def_8 .def_7))) (let ((.def_10 (< .def_9 1))) (let ((.def_11 (not .def_10))) (let ((.def_12 (= .def_11 .def_6))) (let ((.def_13 (* (- 1) x6))) (let ((.def_14 (* (- 1) x2))) (let ((.def_15 (+ .def_14 .def_13))) (let ((.def_16 (< .def_15 (- 1)))) (let ((.def_17 (not .def_16))) (let ((.def_18 (* 1 x1))) (let ((.def_19 (< .def_18 1))) (let ((.def_20 (not .def_19))) (let ((.def_21 (= .def_20 .def_17))) (let ((.def_22 (not .def_21))) (let ((.def_23 (and .def_22 .def_12))) (let ((.def_24 (or .def_23 .def_5))) (let ((.def_25 (* (- 1) x4))) (let ((.def_26 (+ .def_25 .def_7))) (let ((.def_27 (< .def_26 (- 1)))) (let ((.def_28 (and .def_27 A8))) (let ((.def_29 (not .def_28))) (let ((.def_30 (< .def_25 1))) (let ((.def_31 (* (- 1) x3))) (let ((.def_32 (+ .def_13 .def_31))) (let ((.def_33 (< .def_32 1))) (let ((.def_34 (= .def_33 .def_30))) (let ((.def_35 (and .def_34 .def_29))) (let ((.def_36 (not A9))) (let ((.def_37 (* (- 1) x5))) (let ((.def_38 (< .def_37 1))) (let ((.def_39 (or .def_38 .def_36))) (let ((.def_40 (* 1 x6))) (let ((.def_41 (+ .def_37 .def_40))) (let ((.def_42 (< .def_41 (- 1)))) (let ((.def_43 (* (- 1) x9))) (let ((.def_44 (+ .def_14 .def_43))) (let ((.def_45 (< .def_44 (- 1)))) (let ((.def_46 (not .def_45))) (let ((.def_47 (and .def_46 .def_42))) (let ((.def_48 (not .def_47))) (let ((.def_49 (or .def_48 .def_39))) (let ((.def_50 (not .def_49))) (let ((.def_51 (or .def_50 .def_35))) (let ((.def_52 (not .def_51))) (let ((.def_53 (and .def_52 .def_24))) (let ((.def_54 (* 1 x9))) (let ((.def_55 (< .def_54 (- 1)))) (let ((.def_56 (not .def_55))) (let ((.def_57 (or A8 .def_56))) (let ((.def_58 (not .def_57))) (let ((.def_59 (not A5))) (let ((.def_60 (= A8 .def_59))) (let ((.def_61 (not .def_60))) (let ((.def_62 (or .def_61 .def_58))) (let ((.def_63 (< .def_14 (- 1)))) (let ((.def_64 (or .def_6 .def_63))) (let ((.def_65 (not .def_64))) (let ((.def_66 (not A8))) (let ((.def_67 (* 1 x3))) (let ((.def_68 (+ .def_67 .def_25))) (let ((.def_69 (< .def_68 1))) (let ((.def_70 (not .def_69))) (let ((.def_71 (or .def_70 .def_66))) (let ((.def_72 (not .def_71))) (let ((.def_73 (and .def_72 .def_65))) (let ((.def_74 (not .def_73))) (let ((.def_75 (or .def_74 .def_62))) (let ((.def_76 (not .def_75))) (let ((.def_77 (+ .def_37 .def_67))) (let ((.def_78 (< .def_77 1))) (let ((.def_79 (not .def_78))) (let ((.def_80 (and .def_3 .def_79))) (let ((.def_81 (* 1 x0))) (let ((.def_82 (* 1 x7))) (let ((.def_83 (+ .def_82 .def_81))) (let ((.def_84 (< .def_83 1))) (let ((.def_85 (< .def_40 1))) (let ((.def_86 (and .def_85 .def_84))) (let ((.def_87 (or .def_86 .def_80))) (let ((.def_88 (or .def_66 .def_36))) (let ((.def_89 (not A7))) (let ((.def_90 (or .def_89 .def_66))) (let ((.def_91 (= .def_90 .def_88))) (let ((.def_92 (and .def_91 .def_87))) (let ((.def_93 (or .def_92 .def_76))) (let ((.def_94 (= .def_93 .def_53))) (let ((.def_95 (not .def_94))) (let ((.def_96 (<= x9 1))) (let ((.def_97 (<= 0 x9))) (let ((.def_98 (<= x8 1))) (let ((.def_99 (<= 0 x8))) (let ((.def_100 (<= x7 1))) (let ((.def_101 (<= 0 x7))) (let ((.def_102 (<= x6 1))) (let ((.def_103 (<= 0 x6))) (let ((.def_104 (<= x5 1))) (let ((.def_105 (<= 0 x5))) (let ((.def_106 (<= x4 1))) (let ((.def_107 (<= 0 x4))) (let ((.def_108 (<= x3 1))) (let ((.def_109 (<= 0 x3))) (let ((.def_110 (<= x2 1))) (let ((.def_111 (<= 0 x2))) (let ((.def_112 (<= x1 1))) (let ((.def_113 (<= 0 x1))) (let ((.def_114 (<= x0 1))) (let ((.def_115 (<= 0 x0))) (let ((.def_116 (and .def_115 .def_114 .def_113 .def_112 .def_111 .def_110 .def_109 .def_108 .def_107 .def_106 .def_105 .def_104 .def_103 .def_102 .def_101 .def_100 .def_99 .def_98 .def_97 .def_96 .def_95))) .def_116))))))))))))))))))))))))))))))))))))))))))))))))))))))))))))))))))))))))))))))))))))))))))))))))))))))))))))))))))))))
(check-sat)
